c This Formular is generated by mcnf
c
c    horn? no 
c    forced? no 
c    mixed sat? no 
c    clause length = 3 
c
p cnf 20  91 
 -2 10 20 0
-6 -13 19 0
15 20 16 0
15 2 10 0
-15 -19 2 0
-14 13 16 0
-16 9 -17 0
-1 16 -11 0
-5 16 14 0
20 -17 2 0
2 3 15 0
-14 -2 4 0
-11 -4 2 0
-8 9 -20 0
-7 -9 1 0
-18 2 -11 0
2 -1 -19 0
-10 -7 16 0
-16 -6 18 0
-14 -3 -16 0
3 16 13 0
%
0

92 17 57 31 65 93 45 49 10 30 65 43 29 27 89 46 66 45 64 18
